nServices=10;
nDrivers=15;
nBuses=15;
maxBuses=12;
startingTime=[149 70 87 73 157 8 70 151 178 178];
durationTime=[22 13 17 30 10 20 12 29 18 20];
durationDist=[55 53 20 29 28 52 22 50 27 60];
passengers=[2 7 15 18 11 3 5 14 22 2];
capacity=[26 19 30 13 24 27 25 17 22 18 19 19 14 29 10];
costTime=[9 6 9 9 9 9 10 8 10 7 8 8 9 8 10];
costDist=[3 3 4 2 3 2 2 5 2 5 5 4 3 4 6];
maxTime=[44 35 46 25 33 32 36 48 58 33 35 60 43 33 30];
costBM=[5 7 8 7 6 5 6 8 8 5 7 5 6 6 5];
costEM=[10 8 10 9 12 12 9 8 11 11 12 12 10 10 9];
BM=[17 17 18 20 19 10 12 15 11 19 10 11 11 15 10];
